c nIsolatedPIs 30
c maxPI 30
p cnf 61 94
c gate 31 27 28 0
27 -31 0
28 -31 0
-27 -28 31 0
c gate 32 29 31 0
29 -32 0
31 -32 0
-29 -31 32 0
c gate 33 1 12 0
1 -33 0
12 -33 0
-1 -12 33 0
c gate 34 23 24 0
23 -34 0
24 -34 0
-23 -24 34 0
c gate 35 25 26 0
25 -35 0
26 -35 0
-25 -26 35 0
c gate 36 34 35 0
34 -36 0
35 -36 0
-34 -35 36 0
c gate 37 33 36 0
33 -37 0
36 -37 0
-33 -36 37 0
c gate 38 32 37 0
32 -38 0
37 -38 0
-32 -37 38 0
c gate 39 -2 -30 0
-2 -39 0
-30 -39 0
2 30 39 0
c gate 40 -38 39 0
-38 -40 0
39 -40 0
38 -39 40 0
c gate 41 3 -40 0
3 -41 0
-40 -41 0
-3 40 41 0
c gate 42 -4 -5 0
-4 -42 0
-5 -42 0
4 5 42 0
c gate 43 -8 -10 0
-8 -43 0
-10 -43 0
8 10 43 0
c gate 44 42 43 0
42 -44 0
43 -44 0
-42 -43 44 0
c gate 45 -41 44 0
-41 -45 0
44 -45 0
41 -44 45 0
c gate 46 6 7 0
6 -46 0
7 -46 0
-6 -7 46 0
c gate 47 -8 -46 0
-8 -47 0
-46 -47 0
8 46 47 0
c gate 48 9 -47 0
9 -48 0
-47 -48 0
-9 47 48 0
c gate 49 -10 -48 0
-10 -49 0
-48 -49 0
10 48 49 0
c gate 50 11 13 0
11 -50 0
13 -50 0
-11 -13 50 0
c gate 51 -49 50 0
-49 -51 0
50 -51 0
49 -50 51 0
c gate 52 -45 51 0
-45 -52 0
51 -52 0
45 -51 52 0
c gate 53 -14 -15 0
-14 -53 0
-15 -53 0
14 15 53 0
c gate 54 -52 53 0
-52 -54 0
53 -54 0
52 -53 54 0
c gate 55 16 17 0
16 -55 0
17 -55 0
-16 -17 55 0
c gate 56 18 55 0
18 -56 0
55 -56 0
-18 -55 56 0
c gate 57 -54 56 0
-54 -57 0
56 -57 0
54 -56 57 0
c gate 58 -19 -57 0
-19 -58 0
-57 -58 0
19 57 58 0
c gate 59 20 21 0
20 -59 0
21 -59 0
-20 -21 59 0
c gate 60 22 59 0
22 -60 0
59 -60 0
-22 -59 60 0
c gate 61 -58 60 0
-58 -61 0
60 -61 0
58 -60 61 0
c PO
61 0
